pair_style cosine/squared 2.622462048309373
bond_style fene
angle_style harmonic
pair_coeff 1 1 0.8333333333333334 1.0663389458939043 1.0663389458939043 wca
pair_coeff 1 2 0.8333333333333334 1.0663389458939043 1.0663389458939043 wca
pair_coeff 2 2 0.8333333333333334 1.122462048309373 2.622462048309373 wca
bond_coeff 1 30.0 1.5 1.0 1.0
angle_coeff 1 5.0 180.0
angle_coeff 2 0.0 180.0
